11 6 42 23 19 66 30 53 33 26 58 20 54 35 
29 60 55 
12 5 69 41 44 14 68 17 37 48 
38 31 52 7 63 64 47 3 67 
10 
16 4 34 
49 24 18 8 50 
9 1 
75 40 71 15 70 2 22 59 
45 57 36 13 27 62 39 74 32 
73 61 28 51 21 65 25 43 72 46 56 
